num_offers = 30;
num_halls = 10;
start=[23,17,24,80,51,21,41,2,65,67,5,67,10,13,51,98,26,20,6,31,2,25,84,17,72,19,56,45,69,48];
end=[34,72,77,97,66,82,72,60,92,92,31,98,67,85,89,100,96,45,94,72,72,31,99,55,87,93,76,81,75,70];
price=[443,1280,4506,1228,789,2293,1888,799,1098,2360,935,1451,5624,4383,1075,262,859,1379,3634,1733,3379,599,407,1141,1497,1152,1385,2607,573,2174];
requirement=[518,752,507,253,773,909,992,760,583,338,449,398,689,308,699,778,399,354,642,369,344,224,377,800,261,279,844,820,658,428];
capacity=[615,255,598,520,873,508,791,947,704,548];
